NAME /Users/henri/Research/solvers/instances/idol-instances/robust/collection/cbp_Subramanyam_et_al_2020/CapBud_N20_17/models/uncertain_technology_matrix/
ROWS
 N  OBJ
 L  capacity
 L  c_3250
 L  c_3251
 L  c_3252
 L  c_3253
 L  c_3254
 L  c_3255
 L  c_3256
 L  c_3257
 L  c_3258
 L  c_3259
 L  c_3260
 L  c_3261
 L  c_3262
 L  c_3263
 L  c_3264
 L  c_3265
 L  c_3266
 L  c_3267
 L  c_3268
 L  c_3269
COLUMNS
    MARKER    'MARKER'                 'INTORG'
    x_0        OBJ        -9.63986
    x_0        c_3250     1
    x_0        capacity   1.92797
    x_1        OBJ        -7.41149
    x_1        c_3251     1
    x_1        capacity   1.4823
    x_2        OBJ        -7.09118
    x_2        c_3252     1
    x_2        capacity   1.41824
    x_3        OBJ        -7.73042
    x_3        c_3253     1
    x_3        capacity   1.54608
    x_4        OBJ        -0.455808
    x_4        c_3254     1
    x_4        capacity   0.0911616
    x_5        OBJ        -1.04852
    x_5        c_3255     1
    x_5        capacity   0.209704
    x_6        OBJ        -6.7214
    x_6        c_3256     1
    x_6        capacity   1.34428
    x_7        OBJ        -1.15091
    x_7        c_3257     1
    x_7        capacity   0.230183
    x_8        OBJ        -7.10142
    x_8        c_3258     1
    x_8        capacity   1.42028
    x_9        OBJ        -1.09659
    x_9        c_3259     1
    x_9        capacity   0.219319
    x_10       OBJ        -1.76798
    x_10       c_3260     1
    x_10       capacity   0.353596
    x_11       OBJ        -4.78666
    x_11       c_3261     1
    x_11       capacity   0.957333
    x_12       OBJ        -4.88642
    x_12       c_3262     1
    x_12       capacity   0.977285
    x_13       OBJ        -2.74907
    x_13       c_3263     1
    x_13       capacity   0.549814
    x_14       OBJ        -3.83175
    x_14       c_3264     1
    x_14       capacity   0.766351
    x_15       OBJ        -5.5763
    x_15       c_3265     1
    x_15       capacity   1.11526
    x_16       OBJ        -3.16417
    x_16       c_3266     1
    x_16       capacity   0.632833
    x_17       OBJ        -3.44249
    x_17       c_3267     1
    x_17       capacity   0.688499
    x_18       OBJ        -5.24036
    x_18       c_3268     1
    x_18       capacity   1.04807
    x_19       OBJ        -8.07354
    x_19       c_3269     1
    x_19       capacity   1.61471
    y_0        OBJ        -7.71189
    y_0        c_3250     1
    y_0        capacity   1.92797
    y_1        OBJ        -5.92919
    y_1        c_3251     1
    y_1        capacity   1.4823
    y_2        OBJ        -5.67295
    y_2        c_3252     1
    y_2        capacity   1.41824
    y_3        OBJ        -6.18434
    y_3        c_3253     1
    y_3        capacity   1.54608
    y_4        OBJ        -0.364646
    y_4        c_3254     1
    y_4        capacity   0.0911616
    y_5        OBJ        -0.838816
    y_5        c_3255     1
    y_5        capacity   0.209704
    y_6        OBJ        -5.37712
    y_6        c_3256     1
    y_6        capacity   1.34428
    y_7        OBJ        -0.920731
    y_7        c_3257     1
    y_7        capacity   0.230183
    y_8        OBJ        -5.68114
    y_8        c_3258     1
    y_8        capacity   1.42028
    y_9        OBJ        -0.877276
    y_9        c_3259     1
    y_9        capacity   0.219319
    y_10       OBJ        -1.41438
    y_10       c_3260     1
    y_10       capacity   0.353596
    y_11       OBJ        -3.82933
    y_11       c_3261     1
    y_11       capacity   0.957333
    y_12       OBJ        -3.90914
    y_12       c_3262     1
    y_12       capacity   0.977285
    y_13       OBJ        -2.19925
    y_13       c_3263     1
    y_13       capacity   0.549814
    y_14       OBJ        -3.0654
    y_14       c_3264     1
    y_14       capacity   0.766351
    y_15       OBJ        -4.46104
    y_15       c_3265     1
    y_15       capacity   1.11526
    y_16       OBJ        -2.53133
    y_16       c_3266     1
    y_16       capacity   0.632833
    y_17       OBJ        -2.754
    y_17       c_3267     1
    y_17       capacity   0.688499
    y_18       OBJ        -4.19229
    y_18       c_3268     1
    y_18       capacity   1.04807
    y_19       OBJ        -6.45883
    y_19       c_3269     1
    y_19       capacity   1.61471
    MARKER    'MARKER'                 'INTEND'
RHS
    RHS       capacity   46.4832
    RHS       c_3250     1
    RHS       c_3251     1
    RHS       c_3252     1
    RHS       c_3253     1
    RHS       c_3254     1
    RHS       c_3255     1
    RHS       c_3256     1
    RHS       c_3257     1
    RHS       c_3258     1
    RHS       c_3259     1
    RHS       c_3260     1
    RHS       c_3261     1
    RHS       c_3262     1
    RHS       c_3263     1
    RHS       c_3264     1
    RHS       c_3265     1
    RHS       c_3266     1
    RHS       c_3267     1
    RHS       c_3268     1
    RHS       c_3269     1
BOUNDS
 LI BND       x_0        0
 UI BND       x_0        1
 LI BND       x_1        0
 UI BND       x_1        1
 LI BND       x_2        0
 UI BND       x_2        1
 LI BND       x_3        0
 UI BND       x_3        1
 LI BND       x_4        0
 UI BND       x_4        1
 LI BND       x_5        0
 UI BND       x_5        1
 LI BND       x_6        0
 UI BND       x_6        1
 LI BND       x_7        0
 UI BND       x_7        1
 LI BND       x_8        0
 UI BND       x_8        1
 LI BND       x_9        0
 UI BND       x_9        1
 LI BND       x_10       0
 UI BND       x_10       1
 LI BND       x_11       0
 UI BND       x_11       1
 LI BND       x_12       0
 UI BND       x_12       1
 LI BND       x_13       0
 UI BND       x_13       1
 LI BND       x_14       0
 UI BND       x_14       1
 LI BND       x_15       0
 UI BND       x_15       1
 LI BND       x_16       0
 UI BND       x_16       1
 LI BND       x_17       0
 UI BND       x_17       1
 LI BND       x_18       0
 UI BND       x_18       1
 LI BND       x_19       0
 UI BND       x_19       1
 LI BND       y_0        0
 UI BND       y_0        1
 LI BND       y_1        0
 UI BND       y_1        1
 LI BND       y_2        0
 UI BND       y_2        1
 LI BND       y_3        0
 UI BND       y_3        1
 LI BND       y_4        0
 UI BND       y_4        1
 LI BND       y_5        0
 UI BND       y_5        1
 LI BND       y_6        0
 UI BND       y_6        1
 LI BND       y_7        0
 UI BND       y_7        1
 LI BND       y_8        0
 UI BND       y_8        1
 LI BND       y_9        0
 UI BND       y_9        1
 LI BND       y_10       0
 UI BND       y_10       1
 LI BND       y_11       0
 UI BND       y_11       1
 LI BND       y_12       0
 UI BND       y_12       1
 LI BND       y_13       0
 UI BND       y_13       1
 LI BND       y_14       0
 UI BND       y_14       1
 LI BND       y_15       0
 UI BND       y_15       1
 LI BND       y_16       0
 UI BND       y_16       1
 LI BND       y_17       0
 UI BND       y_17       1
 LI BND       y_18       0
 UI BND       y_18       1
 LI BND       y_19       0
 UI BND       y_19       1
ENDATA
